c ENC1
p cnf 19 42
15 14 0
6 7 0
5 4 3 0
-15 -14 0
-6 -7 0
-5 -4 0
-5 -3 0
-4 -3 0
-15 2 0
-2 15 0
-14 1 0
-1 14 0
-15 -6 13 0
-13 15 0
-13 6 0
-15 -7 16 0
-16 15 0
-16 7 0
-14 -6 11 0
-11 14 0
-11 6 0
-14 -7 12 0
-12 14 0
-12 7 0
-15 -5 10 0
-10 15 0
-10 5 0
-15 -4 9 0
-9 15 0
-9 4 0
-15 -3 8 0
-8 15 0
-8 3 0
-14 -5 19 0
-19 14 0
-19 5 0
-14 -4 17 0
-17 14 0
-17 4 0
-14 -3 18 0
-18 14 0
-18 3 0
